param d:     1    2:=
1 19.0 1.526
2 1.0 1.76286
3 1.0 2.92254
4 17.0 2.49139
5 1.0 3.93976
6 11.0 2.92064
7 1.0 4.57709
8 6.0 3.52257
9 4.0 4.57649
10 4.0 4.31393
11 2.0 2.9197
12 2.0 2.48916
13 2.0 3.83745
14 5.0 4.31457
15 5.0 3.83962
16 2.0 4.98055
17 1.0 4.97944
18 3.0 4.57588
19 1.0 4.57528
20 1.0 4.31264
21 2.0 4.98278
22 1.0 4.31329
23 1.0 3.83601
24 1.0 4.31265
25 1.0 4.57407
;
param m :=25;
param l :=20;
end;
